coords = array2d(1..27, 1..2, [948, 472, 651, 900, 542, 929, 470, 676, 209,
    619, 945, 591, 836, 769, 235, 435, 616, 714, 829, 406, 444, 44,
    349, 517, 150, 246, 313, 561, 618, 435, 640, 892, 34, 608, 540,
    957, 53, 693, 716, 457, 314, 786, 269, 202, 405, 356, 175, 295,
    960, 355, 858, 595, 645, 284]);

n = 27;

